language Essence 1.3

letting blksize_delta be
        function(1 --> 7, 2 --> 7, 3 --> 7, 4 --> 7, 5 --> 7, 6 --> 7, 7 --> 7, 8 --> 7, 9 --> 7, 10 --> 7, 11 --> 7,
                 12 --> 7, 13 --> 7, 14 --> 7, 15 --> 7, 16 --> 7)
letting maxcars be
        function(1 --> 10, 2 --> 10, 3 --> 10, 4 --> 10, 5 --> 10, 6 --> 10, 7 --> 10, 8 --> 10, 9 --> 10, 10 --> 10,
                 11 --> 10, 12 --> 10, 13 --> 10, 14 --> 10, 15 --> 10, 16 --> 10)
letting n_cars be 240
letting n_classes be 48
letting n_options be 16
letting quantity be
        function(1 --> 5, 2 --> 5, 3 --> 5, 4 --> 5, 5 --> 5, 6 --> 5, 7 --> 5, 8 --> 5, 9 --> 5, 10 --> 5, 11 --> 5,
                 12 --> 5, 13 --> 5, 14 --> 5, 15 --> 5, 16 --> 5, 17 --> 5, 18 --> 5, 19 --> 5, 20 --> 5, 21 --> 5,
                 22 --> 5, 23 --> 5, 24 --> 5, 25 --> 5, 26 --> 5, 27 --> 5, 28 --> 5, 29 --> 5, 30 --> 5, 31 --> 5,
                 32 --> 5, 33 --> 5, 34 --> 5, 35 --> 5, 36 --> 5, 37 --> 5, 38 --> 5, 39 --> 5, 40 --> 5, 41 --> 5,
                 42 --> 5, 43 --> 5, 44 --> 5, 45 --> 5, 46 --> 5, 47 --> 5, 48 --> 5)
letting usage be
        relation((1, 6), (2, 11), (3, 12), (4, 10), (4, 13), (4, 15), (5, 9), (6, 5), (6, 8), (7, 1), (7, 2), (7, 8),
                 (8, 5), (8, 8), (8, 13), (8, 16), (9, 15), (9, 16), (10, 9), (10, 10), (10, 12), (11, 3), (11, 11),
                 (11, 14), (12, 6), (13, 9), (13, 16), (14, 2), (14, 3), (15, 4), (15, 11), (15, 15), (16, 5), (16, 14),
                 (17, 13), (18, 2), (19, 16), (20, 4), (20, 14), (21, 9), (21, 11), (22, 16), (23, 10), (24, 16),
                 (25, 1), (25, 10), (26, 11), (27, 3), (27, 13), (28, 16), (29, 5), (30, 6), (30, 9), (30, 12), (31, 4),
                 (32, 3), (32, 12), (33, 16), (34, 4), (34, 6), (34, 9), (35, 16), (36, 11), (37, 16), (38, 1), (39, 3),
                 (40, 7), (40, 9), (40, 15), (41, 6), (41, 12), (41, 15), (42, 2), (43, 16), (44, 9), (45, 1), (45, 15),
                 (46, 4), (46, 12), (47, 9), (48, 1), (48, 6), (48, 15))
$ Visualisation for usage
$  1  6
$  2 11
$  3 12
$  4 10
$  4 13
$  4 15
$  5  9
$  6  5
$  6  8
$  7  1
$  7  2
$  7  8
$  8  5
$  8  8
$  8 13
$  8 16
$  9 15
$  9 16
$ 10  9
$ 10 10
$ 10 12
$ 11  3
$ 11 11
$ 11 14
$ 12  6
$ 13  9
$ 13 16
$ 14  2
$ 14  3
$ 15  4
$ 15 11
$ 15 15
$ 16  5
$ 16 14
$ 17 13
$ 18  2
$ 19 16
$ 20  4
$ 20 14
$ 21  9
$ 21 11
$ 22 16
$ 23 10
$ 24 16
$ 25  1
$ 25 10
$ 26 11
$ 27  3
$ 27 13
$ 28 16
$ 29  5
$ 30  6
$ 30  9
$ 30 12
$ 31  4
$ 32  3
$ 32 12
$ 33 16
$ 34  4
$ 34  6
$ 34  9
$ 35 16
$ 36 11
$ 37 16
$ 38  1
$ 39  3
$ 40  7
$ 40  9
$ 40 15
$ 41  6
$ 41 12
$ 41 15
$ 42  2
$ 43 16
$ 44  9
$ 45  1
$ 45 15
$ 46  4
$ 46 12
$ 47  9
$ 48  1
$ 48  6
$ 48 15

